(declare-fun var0 () String)
(assert (str.in.re var0 (re.++ (re.+ (re.union (str.to.re "aaa") (str.to.re "b"))) (re.++ (re.union (re.* (str.to.re "8")) (re.* (str.to.re "9"))) (re.++ (re.* (re.+ (str.to.re "7"))) (re.++ (re.* (re.+ (str.to.re "666"))) (re.++ (re.* (re.union (str.to.re "44") (str.to.re "555"))) (re.++ (re.* (re.union (str.to.re "22") (str.to.re "33"))) (re.++ (re.+ (re.* (str.to.re "1"))) (re.++ (re.union (re.+ (str.to.re "~")) (re.+ (str.to.re "0"))) (re.++ (re.union (re.+ (str.to.re "{{")) (re.union (str.to.re "||") (str.to.re "}"))) (re.++ (re.+ (re.+ (str.to.re "`"))) (re.++ (re.* (re.union (str.to.re "^^") (str.to.re "___"))) (re.++ (re.+ (re.* (str.to.re "]"))) (re.++ (re.+ (re.* (str.to.re "\\"))) (re.++ (re.+ (re.* (str.to.re "[[["))) (re.++ (re.union (re.+ (str.to.re "?")) (re.* (str.to.re "@@"))) (re.++ (re.+ (re.+ (str.to.re ">>"))) (re.++ (re.+ (re.+ (str.to.re "="))) (re.++ (re.* (re.+ (str.to.re "<<"))) (re.++ (re.+ (re.+ (str.to.re ";;;"))) (re.++ (re.* (re.+ (str.to.re "::"))) (re.++ (re.+ (re.+ (str.to.re "//"))) (re.++ (re.* (re.+ (str.to.re "."))) (re.++ (re.* (re.+ (str.to.re "-"))) (re.++ (re.* (re.* (str.to.re ",,,"))) (re.++ (re.union (re.* (str.to.re ")))")) (re.union (str.to.re "**") (str.to.re "+"))) (re.++ (re.* (re.+ (str.to.re "(("))) (re.++ (re.+ (re.+ (str.to.re "'''"))) (re.++ (re.+ (re.+ (str.to.re "&"))) (re.++ (re.* (re.* (str.to.re "%%%"))) (re.++ (re.+ (re.+ (str.to.re "$$"))) (re.++ (re.+ (re.* (str.to.re "#"))) (re.++ (re.* (re.+ (str.to.re """"""""))) (re.++ (re.+ (re.union (str.to.re "ZZZ") (str.to.re "!!"))) (re.++ (re.* (re.+ (str.to.re "YY"))) (re.++ (re.+ (re.* (str.to.re "X"))) (re.++ (re.* (re.* (str.to.re "WWW"))) (re.++ (re.* (re.* (str.to.re "VV"))) (re.++ (re.* (re.union (str.to.re "T") (str.to.re "U"))) (re.++ (re.union (re.* (str.to.re "RRR")) (re.* (str.to.re "S"))) (re.++ (re.union (re.union (str.to.re "OO") (str.to.re "PPP")) (re.* (str.to.re "QQ"))) (re.++ (re.* (re.+ (str.to.re "N"))) (re.++ (re.union (re.+ (str.to.re "L")) (re.* (str.to.re "MMM"))) (re.++ (re.* (re.* (str.to.re "K"))) (re.++ (re.+ (re.union (str.to.re "II") (str.to.re "JJJ"))) (re.++ (re.union (re.union (str.to.re "FFF") (str.to.re "GGG")) (re.+ (str.to.re "HH"))) (re.++ (re.union (re.* (str.to.re "D")) (re.+ (str.to.re "E"))) (re.++ (re.union (re.+ (str.to.re "AA")) (re.union (str.to.re "BBB") (str.to.re "C"))) (re.++ (re.+ (re.+ (str.to.re "zzz"))) (re.++ (re.union (re.union (str.to.re "vvv") (str.to.re "www")) (re.union (str.to.re "xx") (str.to.re "yy"))) (re.++ (re.+ (re.union (str.to.re "t") (str.to.re "u"))) (re.++ (re.union (re.+ (str.to.re "rrr")) (re.* (str.to.re "s"))) (re.++ (re.* (re.union (str.to.re "pp") (str.to.re "qq"))) (re.++ (re.union (re.+ (str.to.re "nn")) (re.* (str.to.re "oo"))) (re.++ (re.union (re.+ (str.to.re "kk")) (re.union (str.to.re "lll") (str.to.re "m"))) (re.++ (re.union (re.union (str.to.re "hh") (str.to.re "ii")) (re.* (str.to.re "jj"))) (re.++ (re.union (re.union (str.to.re "eee") (str.to.re "f")) (re.* (str.to.re "g"))) (re.++ (re.+ (re.union (str.to.re "cc") (str.to.re "ddd"))) (re.++ (re.+ (re.* (str.to.re "b"))) (re.++ (re.* (re.union (str.to.re "9") (str.to.re "aa"))) (re.++ (re.* (re.union (str.to.re "77") (str.to.re "88"))) (re.++ (re.union (re.* (str.to.re "5")) (re.+ (str.to.re "6"))) (re.++ (re.+ (re.* (str.to.re "44"))) (re.++ (re.union (re.+ (str.to.re "2")) (re.+ (str.to.re "33"))) (re.++ (re.union (re.+ (str.to.re "000")) (re.* (str.to.re "111"))) (re.++ (re.union (re.union (str.to.re "||") (str.to.re "}")) (re.* (str.to.re "~~~"))) (re.++ (re.+ (re.union (str.to.re "```") (str.to.re "{{{"))) (re.++ (re.+ (re.union (str.to.re "^^^") (str.to.re "__"))) (re.++ (re.+ (re.+ (str.to.re "]]"))) (re.++ (re.* (re.+ (str.to.re "\\"))) (re.++ (re.+ (re.union (str.to.re "@") (str.to.re "["))) (re.++ (re.union (re.* (str.to.re ">>")) (re.+ (str.to.re "?"))) (re.++ (re.union (re.+ (str.to.re "<")) (re.* (str.to.re "=="))) (re.++ (re.+ (re.+ (str.to.re ";;;"))) (re.++ (re.+ (re.* (str.to.re ":::"))) (re.++ (re.* (re.union (str.to.re "..") (str.to.re "//"))) (re.++ (re.+ (re.union (str.to.re ",") (str.to.re "--"))) (re.++ (re.* (re.+ (str.to.re "++"))) (re.++ (re.* (re.* (str.to.re "**"))) (re.++ (re.union (re.+ (str.to.re "'''")) (re.union (str.to.re "(") (str.to.re "))"))) (re.++ (re.union (re.union (str.to.re "$$$") (str.to.re "%")) (re.* (str.to.re "&"))) (re.++ (re.union (re.union (str.to.re "!!!") (str.to.re """""""")) (re.* (str.to.re "##"))) (re.++ (re.* (re.union (str.to.re "Y") (str.to.re "ZZZ"))) (re.++ (re.* (re.union (str.to.re "W") (str.to.re "XX"))) (re.++ (re.union (re.+ (str.to.re "T")) (re.union (str.to.re "UU") (str.to.re "V"))) (re.++ (re.* (re.* (str.to.re "SSS"))) (re.++ (re.* (re.+ (str.to.re "RR"))) (re.++ (re.+ (re.* (str.to.re "QQ"))) (re.++ (re.+ (re.* (str.to.re "PP"))) (re.++ (re.+ (re.* (str.to.re "OOO"))) (re.++ (re.+ (re.* (str.to.re "NNN"))) (re.++ (re.union (re.* (str.to.re "LLL")) (re.+ (str.to.re "MMM"))) (re.++ (re.* (re.+ (str.to.re "K"))) (re.++ (re.+ (re.* (str.to.re "J"))) (re.++ (re.+ (re.union (str.to.re "H") (str.to.re "III"))) (re.++ (re.+ (re.+ (str.to.re "GG"))) (re.++ (re.+ (re.+ (str.to.re "FFF"))) (re.++ (re.* (re.+ (str.to.re "E"))) (re.++ (re.union (re.+ (str.to.re "B")) (re.union (str.to.re "CC") (str.to.re "DDD"))) (re.++ (re.* (re.union (str.to.re "zzz") (str.to.re "AAA"))) (re.++ (re.+ (re.union (str.to.re "xxx") (str.to.re "yyy"))) (re.++ (re.* (re.+ (str.to.re "ww"))) (re.++ (re.* (re.union (str.to.re "uu") (str.to.re "vvv"))) (re.++ (re.union (re.* (str.to.re "rr")) (re.union (str.to.re "s") (str.to.re "t"))) (re.++ (re.+ (re.union (str.to.re "p") (str.to.re "qq"))) (re.++ (re.union (re.union (str.to.re "mmm") (str.to.re "nn")) (re.* (str.to.re "o"))) (re.++ (re.+ (re.* (str.to.re "l"))) (re.++ (re.+ (re.* (str.to.re "k"))) (re.++ (re.union (re.* (str.to.re "iii")) (re.* (str.to.re "jjj"))) (re.++ (re.* (re.union (str.to.re "ggg") (str.to.re "hhh"))) (re.++ (re.+ (re.+ (str.to.re "ff"))) (re.++ (re.* (re.* (str.to.re "ee"))) (re.++ (re.+ (re.* (str.to.re "d"))) (re.++ (re.* (re.+ (str.to.re "c"))) (re.++ (re.+ (re.+ (str.to.re "bb"))) (re.++ (re.* (re.union (str.to.re "99") (str.to.re "aa"))) (re.++ (re.+ (re.union (str.to.re "777") (str.to.re "88"))) (re.++ (re.* (re.+ (str.to.re "666"))) (re.++ (re.union (re.+ (str.to.re "4")) (re.+ (str.to.re "5"))) (re.++ (re.+ (re.union (str.to.re "222") (str.to.re "333"))) (re.+ (re.union (str.to.re "000") (str.to.re "11"))))))))))))))))))))))))))))))))))))))))))))))))))))))))))))))))))))))))))))))))))))))))))))))))))))))))))))))))))))))))))))
(check-sat)